words_hard_train/7198.qaiger
aag 126 24 0 1 102
2
4
8
12
16
20
24
32
34
38
40
52
54
66
68
80
82
94
96
108
110
218
220
228
253
6 2 4
10 6 8
14 10 12
18 14 16
22 18 20
26 23 25
28 22 24
30 27 29
36 32 34
42 39 41
44 38 40
46 43 45
48 36 46
50 49 45
56 53 55
58 52 54
60 57 59
62 51 60
64 63 59
70 67 69
72 66 68
74 71 73
76 65 74
78 77 73
84 81 83
86 80 82
88 85 87
90 79 88
92 91 87
98 95 97
100 94 96
102 99 101
104 93 102
106 105 101
112 109 111
114 108 110
116 113 115
118 106 117
120 107 116
122 119 121
124 31 123
126 30 122
128 125 127
130 19 21
132 131 23
134 92 103
136 135 105
138 133 136
140 132 137
142 139 141
144 11 13
146 145 15
148 64 75
150 149 77
152 146 151
154 33 35
156 155 37
158 156 3
160 37 47
162 161 49
164 163 4
166 162 5
168 165 167
170 159 168
172 147 150
174 171 173
176 157 2
178 177 169
180 174 179
182 15 17
184 183 19
186 78 89
188 187 91
190 184 189
192 180 191
194 153 192
196 142 194
198 7 9
200 199 11
202 50 61
204 203 63
206 201 204
208 200 205
210 207 209
212 185 188
214 210 213
216 196 214
222 219 220
224 218 221
226 223 225
230 226 229
232 227 228
234 231 233
236 234 29
238 235 28
240 237 239
242 121 115
244 241 242
246 240 243
248 245 247
250 216 248
252 129 250
i0 2 y2[0]
i1 2 y2[1]
i2 2 y2[2]
i3 2 y2[3]
i4 2 y2[4]
i5 2 y2[5]
i6 2 y2[6]
i7 2 y1[0]
i8 1 x1[0]
i9 2 y1[1]
i10 1 x1[1]
i11 2 y1[2]
i12 1 x1[2]
i13 2 y1[3]
i14 1 x1[3]
i15 2 y1[4]
i16 1 x1[4]
i17 2 y1[5]
i18 1 x1[5]
i19 2 y1[6]
i20 1 x1[6]
i21 2 y2[7]
i22 2 y1[7]
i23 1 x1[7]
o0 bool[0]
c
simplified
  !=
    add
      2 y1
      1 x1
    subtract
      1
      unary minus
        2 y2
