words_hard_train/7198.qaiger.qdimacs
p cnf 126 307
a 34 41 48 17 114 20 55 27 0
e 1 2 3 4 5 6 7 8 9 10 11 12 13 14 15 16 18 19 21 22 23 24 25 26 28 29 30 31 32 33 35 36 37 38 39 40 42 43 44 45 46 47 49 50 51 52 53 54 56 57 58 59 60 61 62 63 64 65 66 67 68 69 70 71 72 73 74 75 76 77 78 79 80 81 82 83 84 85 86 87 88 89 90 91 92 93 94 95 96 97 98 99 100 101 102 103 104 105 106 107 108 109 110 111 112 113 115 116 117 118 119 120 121 122 123 124 125 126 0
-1 -2 3 0
1 -3 0
2 -3 0
-3 -4 5 0
3 -5 0
4 -5 0
-5 -6 7 0
5 -7 0
6 -7 0
-7 -8 9 0
7 -9 0
8 -9 0
-9 -10 11 0
9 -11 0
10 -11 0
11 12 13 0
-11 -13 0
-12 -13 0
-11 -12 14 0
11 -14 0
12 -14 0
13 14 15 0
-13 -15 0
-14 -15 0
-16 -17 18 0
16 -18 0
17 -18 0
19 20 21 0
-19 -21 0
-20 -21 0
-19 -20 22 0
19 -22 0
20 -22 0
21 22 23 0
-21 -23 0
-22 -23 0
-18 -23 24 0
18 -24 0
23 -24 0
24 22 25 0
-24 -25 0
-22 -25 0
26 27 28 0
-26 -28 0
-27 -28 0
-26 -27 29 0
26 -29 0
27 -29 0
28 29 30 0
-28 -30 0
-29 -30 0
25 -30 31 0
-25 -31 0
30 -31 0
31 29 32 0
-31 -32 0
-29 -32 0
33 34 35 0
-33 -35 0
-34 -35 0
-33 -34 36 0
33 -36 0
34 -36 0
35 36 37 0
-35 -37 0
-36 -37 0
32 -37 38 0
-32 -38 0
37 -38 0
38 36 39 0
-38 -39 0
-36 -39 0
40 41 42 0
-40 -42 0
-41 -42 0
-40 -41 43 0
40 -43 0
41 -43 0
42 43 44 0
-42 -44 0
-43 -44 0
39 -44 45 0
-39 -45 0
44 -45 0
45 43 46 0
-45 -46 0
-43 -46 0
47 48 49 0
-47 -49 0
-48 -49 0
-47 -48 50 0
47 -50 0
48 -50 0
49 50 51 0
-49 -51 0
-50 -51 0
46 -51 52 0
-46 -52 0
51 -52 0
52 50 53 0
-52 -53 0
-50 -53 0
54 55 56 0
-54 -56 0
-55 -56 0
-54 -55 57 0
54 -57 0
55 -57 0
56 57 58 0
-56 -58 0
-57 -58 0
-53 58 59 0
53 -59 0
-58 -59 0
53 -58 60 0
-53 -60 0
58 -60 0
59 60 61 0
-59 -61 0
-60 -61 0
15 61 62 0
-15 -62 0
-61 -62 0
-15 -61 63 0
15 -63 0
61 -63 0
62 63 64 0
-62 -64 0
-63 -64 0
9 10 65 0
-9 -65 0
-10 -65 0
65 11 66 0
-65 -66 0
-11 -66 0
-46 51 67 0
46 -67 0
-51 -67 0
67 52 68 0
-67 -68 0
-52 -68 0
66 -68 69 0
-66 -69 0
68 -69 0
-66 68 70 0
66 -70 0
-68 -70 0
69 70 71 0
-69 -71 0
-70 -71 0
5 6 72 0
-5 -72 0
-6 -72 0
72 7 73 0
-72 -73 0
-7 -73 0
-32 37 74 0
32 -74 0
-37 -74 0
74 38 75 0
-74 -75 0
-38 -75 0
-73 75 76 0
73 -76 0
-75 -76 0
16 17 77 0
-16 -77 0
-17 -77 0
77 18 78 0
-77 -78 0
-18 -78 0
-78 1 79 0
78 -79 0
-1 -79 0
18 23 80 0
-18 -80 0
-23 -80 0
80 24 81 0
-80 -81 0
-24 -81 0
81 -2 82 0
-81 -82 0
2 -82 0
-81 2 83 0
81 -83 0
-2 -83 0
82 83 84 0
-82 -84 0
-83 -84 0
79 -84 85 0
-79 -85 0
84 -85 0
73 -75 86 0
-73 -86 0
75 -86 0
85 86 87 0
-85 -87 0
-86 -87 0
78 -1 88 0
-78 -88 0
1 -88 0
88 84 89 0
-88 -89 0
-84 -89 0
-87 89 90 0
87 -90 0
-89 -90 0
7 8 91 0
-7 -91 0
-8 -91 0
91 9 92 0
-91 -92 0
-9 -92 0
-39 44 93 0
39 -93 0
-44 -93 0
93 45 94 0
-93 -94 0
-45 -94 0
-92 94 95 0
92 -95 0
-94 -95 0
-90 95 96 0
90 -96 0
-95 -96 0
76 -96 97 0
-76 -97 0
96 -97 0
-71 -97 98 0
71 -98 0
97 -98 0
3 4 99 0
-3 -99 0
-4 -99 0
99 5 100 0
-99 -100 0
-5 -100 0
-25 30 101 0
25 -101 0
-30 -101 0
101 31 102 0
-101 -102 0
-31 -102 0
100 -102 103 0
-100 -103 0
102 -103 0
-100 102 104 0
100 -104 0
-102 -104 0
103 104 105 0
-103 -105 0
-104 -105 0
92 -94 106 0
-92 -106 0
94 -106 0
-105 106 107 0
105 -107 0
-106 -107 0
-98 -107 108 0
98 -108 0
107 -108 0
109 -110 111 0
-109 -111 0
110 -111 0
-109 110 112 0
109 -112 0
-110 -112 0
111 112 113 0
-111 -113 0
-112 -113 0
-113 114 115 0
113 -115 0
-114 -115 0
113 -114 116 0
-113 -116 0
114 -116 0
115 116 117 0
-115 -117 0
-116 -117 0
-117 14 118 0
117 -118 0
-14 -118 0
117 -14 119 0
-117 -119 0
14 -119 0
118 119 120 0
-118 -120 0
-119 -120 0
60 57 121 0
-60 -121 0
-57 -121 0
120 -121 122 0
-120 -122 0
121 -122 0
-120 121 123 0
120 -123 0
-121 -123 0
122 123 124 0
-122 -124 0
-123 -124 0
-108 -124 125 0
108 -125 0
124 -125 0
64 -125 126 0
-64 -126 0
125 -126 0
-126 0
